language ESSENCE' 1.0
letting mainRow be 7
letting mainCol be 7
letting topRows be 4
letting leftCols be 4
letting leftMatrix be [
[1, 1, 0, 0],
[0, 0, 0, 0],
[3, 1, 0, 0],
[6, 0, 0, 0],
[1, 5, 0, 0],
[5, 0, 0, 0],
[1, 1, 0, 0],
]
letting topMatrix be [
[3, 1, 4, 1, 3, 4, 1],
[0, 2, 0, 4, 0, 0, 2],
[0, 0, 0, 0, 0, 0, 0],
[0, 0, 0, 0, 0, 0, 0],

]